language ESSENCE' 1.0

letting n_courses be 112
letting n_periods be 26
letting prerequisite_RelationAsSet_Explicit_1 be
        [1, 1, 1, 2, 2, 2, 3, 3, 3, 3, 3, 3, 4, 4, 4, 4, 4, 4, 5, 5, 5, 5, 5, 5, 5, 6, 6, 7, 7, 8, 8, 8, 8, 8, 8, 8, 8,
         9, 9, 9, 10, 10, 10, 10, 10, 11, 11, 11, 11, 12, 12, 12, 12, 12, 12, 13, 13, 13, 13, 14, 14, 14, 14, 14, 14,
         14, 15, 15, 15, 15, 16, 16, 16, 16, 17, 17, 17, 17, 18, 18, 19, 19, 19, 20, 20, 20, 20, 21, 21, 21, 21, 21, 21,
         21, 21, 21, 22, 22, 22, 23, 23, 23, 23, 23, 24, 24, 24, 24, 26, 26, 26, 27, 27, 27, 27, 28, 28, 29, 30, 30, 31,
         32, 33, 34, 34, 35, 35, 36, 36, 38, 38, 40, 41, 41, 42, 42, 43, 45, 46, 49, 49, 53, 53, 57, 57, 57, 57, 57, 58,
         58, 59, 59, 61, 62, 62, 64, 66, 68, 68, 69, 70, 71, 72, 73, 73, 74, 75, 76, 77, 77, 78, 78, 79, 79, 79, 79, 80,
         80, 82, 82, 82, 83, 84, 84, 85, 85, 87, 90;
             int(1..188)]
letting prerequisite_RelationAsSet_Explicit_2 be
        [49, 69, 76, 46, 66, 73, 59, 60, 63, 67, 80, 81, 32, 33, 37, 38, 75, 84, 29, 34, 47, 58, 59, 71, 72, 31, 83, 58,
         88, 35, 43, 46, 49, 60, 61, 64, 89, 50, 54, 74, 45, 55, 58, 61, 71, 43, 44, 56, 83, 36, 48, 52, 63, 70, 80, 35,
         40, 66, 81, 30, 37, 51, 60, 67, 79, 88, 39, 45, 73, 77, 42, 71, 74, 83, 40, 80, 87, 90, 37, 41, 30, 37, 44, 38,
         47, 70, 76, 33, 34, 36, 37, 53, 64, 68, 82, 90, 35, 83, 86, 43, 58, 85, 86, 90, 43, 69, 70, 86, 31, 50, 62, 32,
         57, 65, 78, 29, 55, 109, 102, 104, 102, 94, 105, 93, 99, 101, 110, 97, 105, 93, 110, 94, 95, 107, 96, 111, 106,
         96, 99, 93, 100, 94, 104, 91, 92, 102, 105, 111, 97, 108, 95, 112, 110, 91, 98, 100, 100, 99, 102, 91, 109, 97,
         111, 105, 107, 95, 93, 108, 95, 103, 107, 111, 94, 101, 103, 106, 95, 105, 91, 99, 100, 92, 100, 102, 108, 112,
         102, 108;
             int(1..188)]
letting course_load_Function1D be
        [7, 5, 5, 4, 5, 7, 6, 7, 5, 4, 4, 4, 5, 5, 7, 6, 6, 5, 5, 4, 6, 6, 6, 6, 5, 4, 4, 5, 4, 7, 6, 5, 6, 6, 6, 6, 6,
         6, 4, 6, 5, 6, 5, 4, 6, 7, 7, 4, 7, 6, 4, 6, 6, 7, 4, 6, 4, 7, 5, 5, 7, 4, 4, 4, 4, 5, 6, 7, 5, 4, 6, 6, 4, 5,
         6, 7, 6, 6, 6, 4, 4, 4, 6, 6, 5, 5, 5, 4, 5, 7, 4, 7, 4, 6, 5, 6, 5, 6, 4, 5, 6, 5, 7, 4, 7, 7, 5, 5, 6, 5, 6,
         4;  int(1..112)]
letting load_per_period_ub be 23
letting load_per_period_lb be 10
letting courses_per_period_ub be 7
letting courses_per_period_lb be 2
letting fin1 be 188
letting fin2 be 112
letting fin3 be 7
